c turning on binary mode checking
c parsing input formula with 202048 variables and 780980 clauses
c finished parsing, read 1998120 bytes from proof file
c detected empty clause; start verification via backward checking
c 1300 of 780980 clauses in core                            
c 412 of 80333 lemmas in core using 9662 resolution steps
c 0 RAT lemmas in core; 8 redundant literals in core lemmas
s VERIFIED
c verification time: 0.931 seconds
